%UNSAT
CapT = 500.0;
CapH = 300.0;
CapN = 1000.0;
Ct = 25.0;
Ch = 23.0;
Cn = 21.0;
n = 7;
S = 3;

dsi = [| 700.0,500.0,600.0,800.0,750.0,628.0,830.0 | 
	450.0,563.0,812.0,698.0,715.0,654.0,759.0 | 
	220.0,648.0,789.0,698.0,756.0,912.0,875.0 |];
